28
0 1 2 3 4 5 6 7 8 0 3 3 9 10 11 5 9 12 5 7 13 14 13 15 6 16 17 12 9 17 9 18 2 19 20 21 14 22 10 23 24 12 14 18 14 10 4 25 24 10 20 0 7 12 18 26 20 3 11 6 23 2 8 3 22 0 6 11 27 20 21 16 27 12 18 6 16 15 9 13 23 22 13 23 24 26 20 18 1 4 19 2 1 19 8 26 11 4 9 15 
